p cnf 40 256
1 2 3 4 5 6 7 8 9 10 0
11 12 13 14 15 16 17 18 19 20 0
21 22 23 24 25 26 27 28 29 30 0
31 32 33 34 35 36 37 38 39 40 0
-4 -6 0
-4 -16 0
-4 -26 0
-4 -36 0
-14 -6 0
-14 -16 0
-14 -26 0
-14 -36 0
-24 -6 0
-24 -16 0
-24 -26 0
-24 -36 0
-34 -6 0
-34 -16 0
-34 -26 0
-34 -36 0
-1 -2 0
-1 -3 0
-1 -4 0
-1 -5 0
-1 -6 0
-1 -7 0
-1 -8 0
-1 -9 0
-1 -10 0
-2 -3 0
-2 -4 0
-2 -5 0
-2 -6 0
-2 -7 0
-2 -8 0
-2 -9 0
-2 -10 0
-3 -4 0
-3 -5 0
-3 -6 0
-3 -7 0
-3 -8 0
-3 -9 0
-3 -10 0
-4 -5 0
-4 -7 0
-4 -8 0
-4 -9 0
-4 -10 0
-5 -6 0
-5 -7 0
-5 -8 0
-5 -9 0
-5 -10 0
-6 -7 0
-6 -8 0
-6 -9 0
-6 -10 0
-7 -8 0
-7 -9 0
-7 -10 0
-8 -9 0
-8 -10 0
-9 -10 0
-11 -12 0
-11 -13 0
-11 -14 0
-11 -15 0
-11 -16 0
-11 -17 0
-11 -18 0
-11 -19 0
-11 -20 0
-12 -13 0
-12 -14 0
-12 -15 0
-12 -16 0
-12 -17 0
-12 -18 0
-12 -19 0
-12 -20 0
-13 -14 0
-13 -15 0
-13 -16 0
-13 -17 0
-13 -18 0
-13 -19 0
-13 -20 0
-14 -15 0
-14 -17 0
-14 -18 0
-14 -19 0
-14 -20 0
-15 -16 0
-15 -17 0
-15 -18 0
-15 -19 0
-15 -20 0
-16 -17 0
-16 -18 0
-16 -19 0
-16 -20 0
-17 -18 0
-17 -19 0
-17 -20 0
-18 -19 0
-18 -20 0
-19 -20 0
-21 -22 0
-21 -23 0
-21 -24 0
-21 -25 0
-21 -26 0
-21 -27 0
-21 -28 0
-21 -29 0
-21 -30 0
-22 -23 0
-22 -24 0
-22 -25 0
-22 -26 0
-22 -27 0
-22 -28 0
-22 -29 0
-22 -30 0
-23 -24 0
-23 -25 0
-23 -26 0
-23 -27 0
-23 -28 0
-23 -29 0
-23 -30 0
-24 -25 0
-24 -27 0
-24 -28 0
-24 -29 0
-24 -30 0
-25 -26 0
-25 -27 0
-25 -28 0
-25 -29 0
-25 -30 0
-26 -27 0
-26 -28 0
-26 -29 0
-26 -30 0
-27 -28 0
-27 -29 0
-27 -30 0
-28 -29 0
-28 -30 0
-29 -30 0
-31 -32 0
-31 -33 0
-31 -34 0
-31 -35 0
-31 -36 0
-31 -37 0
-31 -38 0
-31 -39 0
-31 -40 0
-32 -33 0
-32 -34 0
-32 -35 0
-32 -36 0
-32 -37 0
-32 -38 0
-32 -39 0
-32 -40 0
-33 -34 0
-33 -35 0
-33 -36 0
-33 -37 0
-33 -38 0
-33 -39 0
-33 -40 0
-34 -35 0
-34 -37 0
-34 -38 0
-34 -39 0
-34 -40 0
-35 -36 0
-35 -37 0
-35 -38 0
-35 -39 0
-35 -40 0
-36 -37 0
-36 -38 0
-36 -39 0
-36 -40 0
-37 -38 0
-37 -39 0
-37 -40 0
-38 -39 0
-38 -40 0
-39 -40 0
-1 -11 0
-1 -21 0
-1 -31 0
-11 -21 0
-11 -31 0
-21 -31 0
-2 -12 0
-2 -22 0
-2 -32 0
-12 -22 0
-12 -32 0
-22 -32 0
-3 -13 0
-3 -23 0
-3 -33 0
-13 -23 0
-13 -33 0
-23 -33 0
-4 -14 0
-4 -24 0
-4 -34 0
-14 -24 0
-14 -34 0
-24 -34 0
-5 -15 0
-5 -25 0
-5 -35 0
-15 -25 0
-15 -35 0
-25 -35 0
-6 -16 0
-6 -26 0
-6 -36 0
-16 -26 0
-16 -36 0
-26 -36 0
-7 -17 0
-7 -27 0
-7 -37 0
-17 -27 0
-17 -37 0
-27 -37 0
-8 -18 0
-8 -28 0
-8 -38 0
-18 -28 0
-18 -38 0
-28 -38 0
-9 -19 0
-9 -29 0
-9 -39 0
-19 -29 0
-19 -39 0
-29 -39 0
-10 -20 0
-10 -30 0
-10 -40 0
-20 -30 0
-20 -40 0
-30 -40 0
